# Objective value = 19
WA1n 1
WA1p 0
WA2n 0
WA2p 0
WB1n 1
WB1p 0
WB2n 0
WB2p 0
WC1n 1
WC1p 0
WC2n 0
WC2p 0
WD1n 1
WD1p 0
WD2n 0
WD2p 0
WE1n 1
WE1p 0
WE2n 0
WE2p 0
WF1n 1
WF1p 0
WF2n 0
WF2p 0
WG1n 1
WG1p 0
WG2n 0
WG2p 0
WH1n 1
WH1p 0
WH2n 0
WH2p 0
WI1n 1
WI1p 0
WI2n 0
WI2p 0
WJ1n 1
WJ1p 0
WJ2n 0
WJ2p 0
WK1n 1
WK1p 0
WK2n 0
WK2p 0
WL1n 0
WL1p 1
WL2n 0
WL2p 0
WM1n 0
WM1p 1
WM2n 0
WM2p 0
WN1n 0
WN1p 1
WN2n 0
WN2p 0
WO1n 0
WO1p 1
WO2n 0
WO2p 0
WT1n 0
WT1p 4
WT2n 0
WT2p 0
100 100
a 0
b 0
c 0
d 0
e 0
f 0
g 0
h 0
i 0
j 0
k 0
l 0
m 0
n 0
o 0
p 0
q 0
r 0
s 0
t 0
u 0
v 0
w 1
x 1
y 1
z 1
aa 1
ab 1
ac 1
ad 1
ae 1
af 1
